7914
12, 51, 11, 52, 14, 13, 47, 26, 27, 28, 4, 43, 33, 10, 9, 8, 41, 19, 45, 32, 49, 1, 22, 31, 18, 3, 17, 21, 42, 7, 2, 30, 23, 20, 50, 29, 16, 44, 34, 35, 36, 39, 40, 37, 38, 15, 6, 5, 24, 48, 46, 25
